71 11819 12969
154
153
155
160
161
164
210
162
159
156
152
149
146
148
151
157
158
163
167
168
175
186
180
179
174
178
181
185
184
182
177
172
173
176
183
187
188
189
190
87
88
196
197
201
202
206
207
100
95
94
198
203
204
205
307
306
302
301
295
293
292
288
281
282
294
296
299
300
309
310
304

